Academic license - for non-commercial use only - expires 2022-11-10
Using license file /home/benedond/Apps/gurobi/gurobi950/gurobi.lic
Using gurobi.env file
Set parameter Threads to value 1
Changed value of parameter TimeLimit to 1200.0
   Prev: inf  Min: 0.0  Max: inf  Default: inf
Gurobi Optimizer version 9.1.2 build v9.1.2rc0 (linux64)
Thread count: 2 physical cores, 4 logical processors, using up to 1 threads
Optimize a model with 2108 rows, 1957 columns and 9439 nonzeros
Model fingerprint: 0xfbcd9d06
Variable types: 60 continuous, 1897 integer (1897 binary)
Coefficient statistics:
  Matrix range     [2e-01, 5e+02]
  Objective range  [7e-03, 3e-01]
  Bounds range     [1e+00, 1e+00]
  RHS range        [1e+00, 1e+03]
Presolve removed 217 rows and 109 columns
Presolve time: 0.04s
Presolved: 1891 rows, 1848 columns, 8737 nonzeros
Variable types: 59 continuous, 1789 integer (1789 binary)

Root relaxation: objective 2.061119e+00, 1723 iterations, 0.05 seconds

    Nodes    |    Current Node    |     Objective Bounds      |     Work
 Expl Unexpl |  Obj  Depth IntInf | Incumbent    BestBd   Gap | It/Node Time

     0     0    2.06112    0  163          -    2.06112      -     -    0s
     0     0    2.20648    0  116          -    2.20648      -     -    0s
     0     0    2.22100    0  106          -    2.22100      -     -    0s
     0     0    2.27024    0  111          -    2.27024      -     -    0s
     0     0    2.29793    0  110          -    2.29793      -     -    0s
     0     0    2.33800    0   99          -    2.33800      -     -    0s
     0     0    2.37387    0  119          -    2.37387      -     -    0s
     0     0    2.38797    0  125          -    2.38797      -     -    0s
     0     0    2.38907    0  141          -    2.38907      -     -    0s
     0     0    2.38982    0  132          -    2.38982      -     -    0s
     0     0    2.38985    0  132          -    2.38985      -     -    0s
     0     0    2.42476    0  155          -    2.42476      -     -    0s
H    0     0                       3.7903264    2.42476  36.0%     -    0s
H    0     0                       3.5373542    2.42476  31.5%     -    0s
     0     0    2.43572    0  118    3.53735    2.43572  31.1%     -    0s
     0     0    2.44102    0  117    3.53735    2.44102  31.0%     -    0s
     0     0    2.44131    0  121    3.53735    2.44131  31.0%     -    0s
     0     0    2.44132    0  121    3.53735    2.44132  31.0%     -    0s
     0     0    2.45213    0  128    3.53735    2.45213  30.7%     -    0s
H    0     0                       3.1880209    2.45213  23.1%     -    0s
     0     0    2.45377    0  145    3.18802    2.45377  23.0%     -    0s
     0     0    2.45417    0  123    3.18802    2.45417  23.0%     -    0s
     0     0    2.45417    0  124    3.18802    2.45417  23.0%     -    0s
     0     0    2.47107    0  124    3.18802    2.47107  22.5%     -    0s
     0     0    2.47574    0  137    3.18802    2.47574  22.3%     -    0s
     0     0    2.47632    0  136    3.18802    2.47632  22.3%     -    0s
     0     0    2.47648    0  136    3.18802    2.47648  22.3%     -    1s
     0     0    2.48181    0  108    3.18802    2.48181  22.2%     -    1s
     0     0    2.48268    0  111    3.18802    2.48268  22.1%     -    1s
     0     0    2.48302    0  126    3.18802    2.48302  22.1%     -    1s
     0     0    2.48308    0  129    3.18802    2.48308  22.1%     -    1s
     0     0    2.48805    0  137    3.18802    2.48805  22.0%     -    1s
     0     0    2.49093    0  154    3.18802    2.49093  21.9%     -    1s
     0     0    2.49127    0  158    3.18802    2.49127  21.9%     -    1s
     0     0    2.49143    0  156    3.18802    2.49143  21.9%     -    1s
     0     0    2.49526    0  137    3.18802    2.49526  21.7%     -    1s
     0     0    2.49575    0  147    3.18802    2.49575  21.7%     -    1s
     0     0    2.49588    0  154    3.18802    2.49588  21.7%     -    1s
     0     0    2.49987    0  164    3.18802    2.49987  21.6%     -    1s
     0     0    2.50148    0  155    3.18802    2.50148  21.5%     -    1s
     0     0    2.50212    0  150    3.18802    2.50212  21.5%     -    1s
     0     0    2.50246    0  152    3.18802    2.50246  21.5%     -    1s
     0     0    2.50251    0  157    3.18802    2.50251  21.5%     -    1s
     0     0    2.50442    0  160    3.18802    2.50442  21.4%     -    1s
     0     0    2.50468    0  181    3.18802    2.50468  21.4%     -    1s
     0     0    2.50633    0  160    3.18802    2.50633  21.4%     -    1s
     0     0    2.50633    0  159    3.18802    2.50633  21.4%     -    1s
     0     2    2.50840    0  156    3.18802    2.50840  21.3%     -    1s
H   76    76                       3.1462084    2.52226  19.8%   134    2s
H  156   141                       3.1192361    2.52296  19.1%   124    3s
H  182   163                       3.0955486    2.52296  18.5%   113    3s
H  203   120                       2.9238125    2.52296  13.7%   104    3s
   401   264    2.85810   23   51    2.92381    2.52942  13.5%   108    5s
H  531   333                       2.8794514    2.56658  10.9%   106    7s
   567   358    2.79282   14   90    2.87945    2.60512  9.53%   118   10s
   690   371     cutoff   41         2.87945    2.61598  9.15%   140   15s
H  826   345                       2.8677431    2.62271  8.54%   139   17s
   989   385    2.64157   32  132    2.86774    2.63263  8.20%   140   20s
H 1014   381                       2.8669792    2.63263  8.17%   140   20s
  1322   392    2.82044   57  102    2.86698    2.66125  7.18%   140   25s
  1783   481    2.79516   29   90    2.86698    2.70780  5.55%   138   30s
  2056   530    2.84965   23   85    2.86698    2.73022  4.77%   138   35s
  2449   626    2.76661   23  107    2.86698    2.75572  3.88%   138   40s
* 2508   658              44       2.8669792    2.75597  3.87%   136   40s
  2870   621    2.83589   42   76    2.86698    2.77400  3.24%   138   45s
  3421   607    2.84117   47   80    2.86698    2.79859  2.39%   134   50s
  4238   731    2.85880   83   78    2.86698    2.81526  1.80%   122   55s
  5119   558     cutoff   34         2.86698    2.83947  0.96%   112   60s
* 5969   162              53       2.8614792    2.85574  0.20%   102   62s

Cutting planes:
  Gomory: 16
  Cover: 43
  Implied bound: 2
  Clique: 2
  MIR: 153
  Flow cover: 260
  GUB cover: 1
  RLT: 13
  Relax-and-lift: 114

Explored 6138 nodes (620632 simplex iterations) in 62.74 seconds
Thread count was 1 (of 4 available processors)

Solution count 10: 2.86148 2.86698 2.86774 ... 3.53735

Optimal solution found (tolerance 1.00e-04)
Best objective 2.861479187260e+00, best bound 2.861221921199e+00, gap 0.0090%
